N = 160;
M = 364;
Edge_Start = [1, 1, 2, 3, 3, 4, 5, 5, 6, 7, 8, 9, 10, 11, 11, 12, 13, 13, 14, 15, 15, 16, 17, 18, 19, 19, 20, 21, 21, 23, 23, 24, 25, 27, 29, 29, 30, 31, 31, 33, 33, 34, 35, 36, 36, 37, 38, 38, 39, 40, 41, 42, 42, 44, 44, 46, 47, 48, 49, 50, 51, 52, 52, 54, 55, 55, 56, 57, 57, 58, 59, 60, 61, 61, 62, 63, 63, 64, 65, 66, 67, 68, 69, 69, 70, 71, 72, 72, 73, 74, 74, 75, 76, 76, 78, 78, 79, 80, 80, 81, 82, 82, 84, 84, 85, 86, 86, 87, 88, 90, 91, 91, 93, 93, 94, 95, 95, 96, 97, 97, 99, 99, 100, 101, 101, 103, 103, 105, 105, 107, 108, 108, 109, 110, 111, 112, 113, 114, 115, 117, 118, 119, 120, 121, 123, 124, 124, 126, 127, 128, 129, 129, 131, 131, 132, 133, 133, 134, 135, 135, 136, 137, 137, 139, 139, 140, 142, 143, 144, 145, 146, 147, 148, 149, 151, 152, 153, 154, 155, 156, 157, 159, 2, 18, 3, 4, 20, 5, 6, 22, 7, 24, 9, 26, 11, 12, 28, 13, 14, 30, 15, 16, 32, 17, 34, 19, 20, 37, 21, 22, 39, 24, 41, 25, 26, 28, 30, 47, 31, 32, 49, 34, 51, 35, 53, 37, 54, 38, 39, 56, 40, 58, 42, 43, 60, 45, 62, 64, 48, 49, 50, 68, 52, 53, 70, 55, 56, 73, 57, 58, 75, 59, 77, 61, 62, 79, 63, 64, 81, 65, 66, 67, 68, 69, 70, 87, 71, 89, 73, 90, 74, 75, 92, 76, 77, 94, 79, 96, 80, 81, 98, 82, 83, 100, 85, 102, 86, 87, 104, 88, 106, 91, 92, 109, 94, 111, 95, 96, 113, 97, 98, 115, 100, 117, 101, 102, 119, 104, 121, 106, 123, 125, 109, 126, 110, 111, 112, 113, 114, 115, 116, 118, 119, 120, 138, 122, 124, 125, 142, 127, 144, 129, 130, 146, 132, 148, 133, 134, 150, 135, 136, 152, 137, 138, 154, 140, 156, 141, 143, 160, 145, 146, 147, 148, 149, 150, 152, 153, 154, 155, 156, 157, 158, 160];
Edge_End = [2, 18, 3, 4, 20, 5, 6, 22, 7, 24, 9, 26, 11, 12, 28, 13, 14, 30, 15, 16, 32, 17, 34, 19, 20, 37, 21, 22, 39, 24, 41, 25, 26, 28, 30, 47, 31, 32, 49, 34, 51, 35, 53, 37, 54, 38, 39, 56, 40, 58, 42, 43, 60, 45, 62, 64, 48, 49, 50, 68, 52, 53, 70, 55, 56, 73, 57, 58, 75, 59, 77, 61, 62, 79, 63, 64, 81, 65, 66, 67, 68, 69, 70, 87, 71, 89, 73, 90, 74, 75, 92, 76, 77, 94, 79, 96, 80, 81, 98, 82, 83, 100, 85, 102, 86, 87, 104, 88, 106, 91, 92, 109, 94, 111, 95, 96, 113, 97, 98, 115, 100, 117, 101, 102, 119, 104, 121, 106, 123, 125, 109, 126, 110, 111, 112, 113, 114, 115, 116, 118, 119, 120, 138, 122, 124, 125, 142, 127, 144, 129, 130, 146, 132, 148, 133, 134, 150, 135, 136, 152, 137, 138, 154, 140, 156, 141, 143, 160, 145, 146, 147, 148, 149, 150, 152, 153, 154, 155, 156, 157, 158, 160, 1, 1, 2, 3, 3, 4, 5, 5, 6, 7, 8, 9, 10, 11, 11, 12, 13, 13, 14, 15, 15, 16, 17, 18, 19, 19, 20, 21, 21, 23, 23, 24, 25, 27, 29, 29, 30, 31, 31, 33, 33, 34, 35, 36, 36, 37, 38, 38, 39, 40, 41, 42, 42, 44, 44, 46, 47, 48, 49, 50, 51, 52, 52, 54, 55, 55, 56, 57, 57, 58, 59, 60, 61, 61, 62, 63, 63, 64, 65, 66, 67, 68, 69, 69, 70, 71, 72, 72, 73, 74, 74, 75, 76, 76, 78, 78, 79, 80, 80, 81, 82, 82, 84, 84, 85, 86, 86, 87, 88, 90, 91, 91, 93, 93, 94, 95, 95, 96, 97, 97, 99, 99, 100, 101, 101, 103, 103, 105, 105, 107, 108, 108, 109, 110, 111, 112, 113, 114, 115, 117, 118, 119, 120, 121, 123, 124, 124, 126, 127, 128, 129, 129, 131, 131, 132, 133, 133, 134, 135, 135, 136, 137, 137, 139, 139, 140, 142, 143, 144, 145, 146, 147, 148, 149, 151, 152, 153, 154, 155, 156, 157, 159];
L = [4, 4, 12, 14, 9, 1, 9, 16, 6, 9, 4, 3, 17, 2, 16, 4, 2, 15, 11, 15, 16, 17, 16, 3, 17, 8, 1, 17, 8, 15, 17, 3, 9, 1, 19, 13, 18, 16, 13, 19, 14, 5, 8, 15, 1, 18, 4, 7, 5, 10, 3, 8, 6, 6, 10, 16, 16, 1, 8, 4, 1, 10, 8, 2, 5, 2, 17, 3, 10, 5, 18, 7, 6, 7, 11, 7, 4, 2, 5, 12, 7, 9, 18, 10, 7, 9, 7, 17, 3, 12, 1, 18, 13, 12, 5, 1, 2, 2, 12, 1, 10, 16, 1, 16, 5, 6, 8, 10, 15, 13, 7, 6, 5, 14, 15, 10, 1, 5, 3, 16, 10, 9, 12, 2, 19, 11, 19, 16, 5, 7, 18, 4, 9, 3, 3, 3, 5, 10, 11, 9, 14, 9, 11, 5, 3, 12, 7, 1, 15, 12, 16, 14, 2, 2, 4, 6, 15, 9, 3, 13, 10, 15, 6, 15, 9, 16, 17, 16, 7, 8, 12, 1, 16, 16, 3, 13, 11, 13, 18, 4, 15, 9, 4, 4, 12, 14, 9, 1, 9, 16, 6, 9, 4, 3, 17, 2, 16, 4, 2, 15, 11, 15, 16, 17, 16, 3, 17, 8, 1, 17, 8, 15, 17, 3, 9, 1, 19, 13, 18, 16, 13, 19, 14, 5, 8, 15, 1, 18, 4, 7, 5, 10, 3, 8, 6, 6, 10, 16, 16, 1, 8, 4, 1, 10, 8, 2, 5, 2, 17, 3, 10, 5, 18, 7, 6, 7, 11, 7, 4, 2, 5, 12, 7, 9, 18, 10, 7, 9, 7, 17, 3, 12, 1, 18, 13, 12, 5, 1, 2, 2, 12, 1, 10, 16, 1, 16, 5, 6, 8, 10, 15, 13, 7, 6, 5, 14, 15, 10, 1, 5, 3, 16, 10, 9, 12, 2, 19, 11, 19, 16, 5, 7, 18, 4, 9, 3, 3, 3, 5, 10, 11, 9, 14, 9, 11, 5, 3, 12, 7, 1, 15, 12, 16, 14, 2, 2, 4, 6, 15, 9, 3, 13, 10, 15, 6, 15, 9, 16, 17, 16, 7, 8, 12, 1, 16, 16, 3, 13, 11, 13, 18, 4, 15, 9];
T = [1, 3, 11, 13, 7, 1, 1, 25, 4, 12, 9, 5, 16, 1, 13, 5, 1, 12, 1, 14, 19, 16, 18, 7, 17, 7, 4, 22, 9, 7, 23, 11, 10, 1, 23, 15, 16, 7, 7, 25, 24, 9, 6, 15, 3, 14, 2, 9, 4, 13, 1, 5, 8, 2, 15, 20, 8, 2, 11, 7, 1, 15, 7, 1, 6, 11, 16, 8, 2, 15, 6, 12, 11, 14, 4, 6, 1, 9, 3, 15, 5, 3, 17, 18, 5, 5, 6, 18, 4, 10, 2, 24, 8, 13, 2, 14, 10, 1, 20, 2, 9, 21, 1, 9, 3, 1, 6, 1, 17, 14, 7, 6, 7, 14, 8, 8, 1, 5, 3, 15, 9, 20, 10, 1, 17, 6, 20, 17, 4, 2, 22, 1, 6, 1, 1, 3, 1, 14, 9, 12, 12, 5, 1, 2, 1, 7, 3, 1, 9, 6, 19, 10, 11, 1, 1, 8, 15, 9, 7, 19, 5, 12, 7, 12, 6, 20, 9, 13, 5, 9, 17, 8, 16, 13, 1, 11, 14, 25, 20, 4, 10, 1, 1, 3, 11, 13, 7, 1, 1, 25, 4, 12, 9, 5, 16, 1, 13, 5, 1, 12, 1, 14, 19, 16, 18, 7, 17, 7, 4, 22, 9, 7, 23, 11, 10, 1, 23, 15, 16, 7, 7, 25, 24, 9, 6, 15, 3, 14, 2, 9, 4, 13, 1, 5, 8, 2, 15, 20, 8, 2, 11, 7, 1, 15, 7, 1, 6, 11, 16, 8, 2, 15, 6, 12, 11, 14, 4, 6, 1, 9, 3, 15, 5, 3, 17, 18, 5, 5, 6, 18, 4, 10, 2, 24, 8, 13, 2, 14, 10, 1, 20, 2, 9, 21, 1, 9, 3, 1, 6, 1, 17, 14, 7, 6, 7, 14, 8, 8, 1, 5, 3, 15, 9, 20, 10, 1, 17, 6, 20, 17, 4, 2, 22, 1, 6, 1, 1, 3, 1, 14, 9, 12, 12, 5, 1, 2, 1, 7, 3, 1, 9, 6, 19, 10, 11, 1, 1, 8, 15, 9, 7, 19, 5, 12, 7, 12, 6, 20, 9, 13, 5, 9, 17, 8, 16, 13, 1, 11, 14, 25, 20, 4, 10, 1];
Lower_Bound = [0, 1, 12, 25, 26, 27, 31, 78, 69, 222, 206, 205, 200, 199, 198, 212, 222, 3, 10, 19, 23, 45, 50, 43, 54, 64, 220, 219, 190, 188, 172, 179, 199, 204, 195, 32, 17, 31, 32, 36, 73, 74, 79, 120, 122, 135, 175, 167, 165, 154, 175, 174, 189, 35, 36, 40, 56, 49, 64, 82, 94, 105, 109, 115, 124, 127, 142, 147, 150, 167, 172, 53, 47, 51, 58, 78, 70, 100, 102, 111, 110, 112, 121, 153, 154, 157, 158, 159, 177, 71, 60, 53, 87, 86, 78, 86, 91, 94, 142, 133, 143, 144, 169, 163, 193, 176, 207, 88, 66, 72, 73, 74, 77, 78, 92, 101, 162, 172, 160, 165, 189, 191, 197, 198, 205, 89, 90, 129, 123, 142, 139, 150, 151, 159, 168, 175, 178, 166, 236, 248, 268, 201, 210, 99, 104, 113, 130, 138, 154, 166, 188, 187, 198, 185, 210, 230, 234, 244, 224, 223];
Upper_Bound = [0, 1, 12, 25, 26, 27, 31, 78, 69, 222, 206, 205, 200, 199, 198, 212, 222, 3, 10, 19, 23, 45, 50, 43, 54, 64, 220, 219, 190, 188, 172, 179, 199, 204, 195, 32, 17, 31, 32, 36, 73, 74, 79, 120, 122, 135, 175, 167, 165, 154, 175, 174, 189, 35, 36, 40, 56, 49, 64, 82, 94, 105, 109, 115, 124, 127, 142, 147, 150, 167, 172, 53, 47, 51, 58, 78, 70, 100, 102, 111, 110, 112, 121, 153, 154, 157, 158, 159, 177, 71, 60, 53, 87, 86, 78, 86, 91, 94, 142, 133, 143, 144, 169, 163, 193, 176, 207, 88, 66, 72, 73, 74, 77, 78, 92, 101, 162, 172, 160, 165, 189, 191, 197, 198, 205, 89, 90, 129, 123, 142, 139, 150, 151, 159, 168, 175, 178, 166, 236, 248, 268, 201, 210, 99, 104, 113, 130, 138, 154, 166, 188, 187, 198, 185, 210, 230, 234, 244, 224, 223];
Start = 1;
End = 160;
Time = 223;
